37 15 88 94 44 0 67 


































































































90 16 63 43 62 77 108 54 
14 109 68 23 4 92 104 105 
113 58 66 52 40 110 73 
24 17 26 89 93 30 35 107 
13 46 42 65 1 12 36 
51 5 64 25 78 111 56 
21 100 114 87 60 76 20 69 
79 9 39 3 41 6 82 48 
27 106 47 112 55 50 49 95 
75 96 97 34 22 61 10 
70 53 74 18 38 32 72 91 
57 8 83 59 71 81 45 98 11 

103 29 99 31 33 19 7 101 
86 84 85 28 80 2 102 

